98 300 142 134 119 139 113 155 151 109 156 166 159 193 195 178 128 184 125 130 119 149 171 148 152 125 154 146 137 142 140 155 115 183 155 100 121 168 155 172 143 111 137 101 170 198 179 198 181 170 195 166 119 165 114 137 157 134 149 160 176 189 181 157 171 135 157 158 102 179 129 145 156 132 113 125 129 158 189 176 128 183 142 147 114 122 150 171 122 199 130 164 153 110 120 124 145 143 182 113 